c A SAT instance generated from a 3-CNF formula that had 12 clauses and 6 variables
p cnf 6 12
-1 6 -3 0
-3 -6 1 0
1 6 3 0
4 -1 -6 0
2 3 -4 0
2 -5 3 0
6 -4 -5 0
3 6 -4 0
4 -5 -6 0
5 -3 -2 0
6 -3 4 0
-3 1 4 0
